SPARKNaCl/why3-cvc5/sparknacl-utils.adb_77_13_postcondition3_1.smt2
;; produced by cvc5.drv ;;
(set-logic ALL)
(set-info :smt-lib-version 2.6)
;;; generated by SMT-LIB2 driver
;;; SMT-LIB2 driver: bit-vectors, common part
;;; SMT-LIB2: integer arithmetic
;; "pow2"
(declare-fun pow2 (Int) Int)

(declare-const two_power_size_minus_one Int)

;; "two_power_size_minus_one_val"
(assert (= two_power_size_minus_one (pow2 (- 32 1))))

;; "min"
(define-fun min ((x Int) (y Int)) Int
  (ite (<= x y) x y))

;; "max"
(define-fun max ((x Int) (y Int)) Int
  (ite (<= x y) y x))

;; "Min_r"
(assert (forall ((x Int) (y Int)) (=> (<= y x) (= (min x y) y))))

;; "Max_l"
(assert (forall ((x Int) (y Int)) (=> (<= y x) (= (max x y) x))))

;; "Min_comm"
(assert (forall ((x Int) (y Int)) (= (min x y) (min y x))))

;; "Max_comm"
(assert (forall ((x Int) (y Int)) (= (max x y) (max y x))))

;; "Min_assoc"
(assert
  (forall ((x Int) (y Int) (z Int)) (= (min (min x y) z) (min x (min y z)))))

;; "Max_assoc"
(assert
  (forall ((x Int) (y Int) (z Int)) (= (max (max x y) z) (max x (max y z)))))

;; "uc_of_int"
(define-fun uc_of_int ((x Int)) (_ BitVec 32)
  (ite (<= 0 x) ((_ int2bv 32) x) (bvneg ((_ int2bv 32) (- x)))))

;; "uc_to_int"
(define-fun uc_to_int ((x (_ BitVec 32))) Int
  (ite (= (bvult x ((_ int2bv 32) two_power_size_minus_one)) true)
    (bv2nat x)
    (- (bv2nat (bvneg x)))))

;; "to_u32__function_guard"
(declare-fun to_u32__function_guard ((_ BitVec 32)
  Int) Bool)

;; "in_range"
(define-fun in_range ((x Int)) Bool
  (and (<= (- 2147483648) x) (<= x 2147483647)))

;; "to_i32__function_guard"
(declare-fun to_i32__function_guard (Int
  (_ BitVec 32)) Bool)

(declare-const mask (_ BitVec 32))

;; "in_range"
(define-fun in_range1 ((x Int)) Bool
  (and (<= (- 2147483648) x) (<= x 2147483647)))

;; Goal "def'vc"
;; File "sparknacl-utils.adb", line 70, characters 0-0
(assert
  (not
  (forall ((p Int) (q Int))
    (=>
      (in_range1 p)
      (=>
        (in_range1 q)
        (=>
          (or (= mask #x00000000) (= mask #xFFFFFFFF))
          (=>
            (to_u32__function_guard (uc_of_int p) p)
            (=>
              (forall ((temp___872 (_ BitVec 32)))
                (to_i32__function_guard (uc_to_int temp___872) temp___872))
              (=>
                (= (let ((temp___872 (uc_of_int p))) (uc_to_int temp___872)) p)
                (=>
                  (to_u32__function_guard (uc_of_int q) q)
                  (=>
                    (forall ((temp___876 (_ BitVec 32)))
                      (to_i32__function_guard
                        (uc_to_int temp___876)
                        temp___876))
                    (=>
                      (= (let ((temp___876 (uc_of_int q)))
                           (uc_to_int temp___876)) q)
                      (let ((o (uc_of_int q)))
                        (=>
                          (to_u32__function_guard o q)
                          (let ((o1 (uc_of_int p)))
                            (=>
                              (to_u32__function_guard o1 p)
                              (forall ((t (_ BitVec 32)))
                                (=>
                                  (= t (bvand mask (bvxor o1 o)))
                                  (=>
                                    (to_u32__function_guard (uc_of_int p) p)
                                    (=>
                                      (to_u32__function_guard
                                        (uc_of_int q)
                                        q)
                                      (=>
                                        (and
                                          (=>
                                            (= mask #xFFFFFFFF)
                                            (= t (bvxor (uc_of_int p) 
                                            (uc_of_int
                                              q))))
                                          (=>
                                            (= mask #x00000000)
                                            (= t #x00000000)))
                                        (=>
                                          (to_u32__function_guard
                                            (uc_of_int p)
                                            p)
                                          (=>
                                            (to_u32__function_guard
                                              (uc_of_int p)
                                              p)
                                            (=>
                                              (to_u32__function_guard
                                                (uc_of_int q)
                                                q)
                                              (=>
                                                (to_u32__function_guard
                                                  (uc_of_int q)
                                                  q)
                                                (=>
                                                  (= (bvxor (uc_of_int p) (bvxor 
                                                  (uc_of_int
                                                    p) (uc_of_int q))) 
                                                  (uc_of_int
                                                    q))
                                                  (=>
                                                    (to_u32__function_guard
                                                      (uc_of_int q)
                                                      q)
                                                    (=>
                                                      (to_u32__function_guard
                                                        (uc_of_int p)
                                                        p)
                                                      (=>
                                                        (to_u32__function_guard
                                                          (uc_of_int q)
                                                          q)
                                                        (=>
                                                          (to_u32__function_guard
                                                            (uc_of_int p)
                                                            p)
                                                          (=>
                                                            (= (bvxor 
                                                            (uc_of_int
                                                              q) (bvxor 
                                                            (uc_of_int
                                                              p) (uc_of_int
                                                                   q))) 
                                                            (uc_of_int
                                                              p))
                                                            (=>
                                                              (to_u32__function_guard
                                                                (uc_of_int p)
                                                                p)
                                                              (=>
                                                                (to_u32__function_guard
                                                                  (uc_of_int
                                                                    p)
                                                                  p)
                                                                (=>
                                                                  (= (bvxor 
                                                                  (uc_of_int
                                                                    p) #x00000000) 
                                                                  (uc_of_int
                                                                    p))
                                                                  (=>
                                                                    (to_u32__function_guard
                                                                    (uc_of_int
                                                                    q)
                                                                    q)
                                                                    (=>
                                                                    (to_u32__function_guard
                                                                    (uc_of_int
                                                                    q)
                                                                    q)
                                                                    (=>
                                                                    (= (bvxor 
                                                                    (uc_of_int
                                                                    q) #x00000000) 
                                                                    (uc_of_int
                                                                    q))
                                                                    (=>
                                                                    (to_u32__function_guard
                                                                    (uc_of_int
                                                                    p)
                                                                    p)
                                                                    (=>
                                                                    (to_u32__function_guard
                                                                    (uc_of_int
                                                                    p)
                                                                    p)
                                                                    (=>
                                                                    (to_u32__function_guard
                                                                    (uc_of_int
                                                                    q)
                                                                    q)
                                                                    (=>
                                                                    (forall 
                                                                    ((temp___913 (_ BitVec 32)))
                                                                    (to_i32__function_guard
                                                                    (uc_to_int
                                                                    temp___913)
                                                                    temp___913))
                                                                    (=>
                                                                    (= 
                                                                    (let ((temp___913 (bvxor 
                                                                    (uc_of_int
                                                                    p) (bvxor 
                                                                    (uc_of_int
                                                                    p) 
                                                                    (uc_of_int
                                                                    q)))))
                                                                    (uc_to_int
                                                                    temp___913)) q)
                                                                    (=>
                                                                    (to_u32__function_guard
                                                                    (uc_of_int
                                                                    q)
                                                                    q)
                                                                    (=>
                                                                    (to_u32__function_guard
                                                                    (uc_of_int
                                                                    p)
                                                                    p)
                                                                    (=>
                                                                    (to_u32__function_guard
                                                                    (uc_of_int
                                                                    q)
                                                                    q)
                                                                    (=>
                                                                    (forall 
                                                                    ((temp___921 (_ BitVec 32)))
                                                                    (to_i32__function_guard
                                                                    (uc_to_int
                                                                    temp___921)
                                                                    temp___921))
                                                                    (=>
                                                                    (= 
                                                                    (let ((temp___921 (bvxor 
                                                                    (uc_of_int
                                                                    q) (bvxor 
                                                                    (uc_of_int
                                                                    p) 
                                                                    (uc_of_int
                                                                    q)))))
                                                                    (uc_to_int
                                                                    temp___921)) p)
                                                                    (=>
                                                                    (to_u32__function_guard
                                                                    (uc_of_int
                                                                    p)
                                                                    p)
                                                                    (=>
                                                                    (forall 
                                                                    ((temp___925 (_ BitVec 32)))
                                                                    (to_i32__function_guard
                                                                    (uc_to_int
                                                                    temp___925)
                                                                    temp___925))
                                                                    (=>
                                                                    (= 
                                                                    (let ((temp___925 (bvxor 
                                                                    (uc_of_int
                                                                    p) #x00000000)))
                                                                    (uc_to_int
                                                                    temp___925)) p)
                                                                    (=>
                                                                    (to_u32__function_guard
                                                                    (uc_of_int
                                                                    q)
                                                                    q)
                                                                    (=>
                                                                    (forall 
                                                                    ((temp___929 (_ BitVec 32)))
                                                                    (to_i32__function_guard
                                                                    (uc_to_int
                                                                    temp___929)
                                                                    temp___929))
                                                                    (=>
                                                                    (= 
                                                                    (let ((temp___929 (bvxor 
                                                                    (uc_of_int
                                                                    q) #x00000000)))
                                                                    (uc_to_int
                                                                    temp___929)) q)
                                                                    (let ((o2 
                                                                    (uc_of_int
                                                                    p)))
                                                                    (=>
                                                                    (to_u32__function_guard
                                                                    o2
                                                                    p)
                                                                    (let ((o3 (bvxor o2 t)))
                                                                    (let ((o4 
                                                                    (uc_to_int
                                                                    o3)))
                                                                    (=>
                                                                    (and
                                                                    (to_i32__function_guard
                                                                    o4
                                                                    o3)
                                                                    (in_range
                                                                    o4))
                                                                    (forall 
                                                                    ((p1 Int))
                                                                    (=>
                                                                    (= p1 o4)
                                                                    (let ((o5 
                                                                    (uc_of_int
                                                                    q)))
                                                                    (=>
                                                                    (to_u32__function_guard
                                                                    o5
                                                                    q)
                                                                    (let ((o6 (bvxor o5 t)))
                                                                    (let ((o7 
                                                                    (uc_to_int
                                                                    o6)))
                                                                    (=>
                                                                    (and
                                                                    (to_i32__function_guard
                                                                    o7
                                                                    o6)
                                                                    (in_range
                                                                    o7))
                                                                    (forall 
                                                                    ((q1 Int))
                                                                    (=>
                                                                    (= q1 o7)
                                                                    (=>
                                                                    (= 
                                                                    mask #x00000000)
                                                                    (= p1 p)))))))))))))))))))))))))))))))))))))))))))))))))))))))))))))))))))))

(check-sat)
